Instance name:    bar-n100-2.txt
Authors:          PDPTW Solver
Date:             2026-01-16
Reference:        LNS with SA/RTR
Solution: 0;5;556.000;60.00 s
Route 1 :  32 27 34 84 82 31 77 33 83 81 6 3 48 98 56 44 53 94 22 46 96 72
Route 2 :  12 13 62 63 40 90 18 68 36 86 16 47 66 8 97 11 61 38 58 88 7 57
Route 3 :  42 92 26 76 17 19 69 50 9 59 67 45 95 21 71 1 51 4 54 100 25 75
Route 4 :  37 29 79 43 30 87 23 93 80 5 55 10 73 2 52 60 41 91 14 64
Route 5 :  39 15 89 65 20 70 28 78 49 99 35 85 24 74
